307 980
280 10
696 745
294 752
313 352
634 355
115 187
576 530
437 312
687 853
526 596
599 90
272 853
307 949
431 57
840 309
232 447
355 562
4 244
998 3
715 573
426 444
10 275
755 668
856 120
199 362
417 419
529 142
238 469
383 249
33 187
689 168
665 634
963 896
518 942
908 515
854 537
706 849
249 794
669 320
78 545
110 640
105 11
318 200
806 629
608 714
193 233
963 29
453 878
465 351
750 51
943 256
98 822
165 351
435 209
32 739
203 258
958 290
926 918
893 807
157 515
988 924
291 611
495 958
293 135
418 151
618 235
67 723
558 630
155 169
924 460
477 797
788 497
412 27
63 382
161 770
129 478
726 960
31 77
919 619
19 470
694 651
819 222
808 263
306 869
46 921
959 210
342 143
510 722
857 295
901 515
753 647
687 238
684 567
450 463
414 561
805 632
578 501
891 937
500 604
